NAME          DCAP_2_4_3_300_SS95
ROWS
 N  OBJ
 L  CON1
 L  CON2
 L  CON3
 L  CON4
 L  CON5
 L  CON6
 L  CON7
 L  CON8
 L  CON9
 L  CON10
 L  CON11
 L  CON12
 E  CON13
 E  CON14
 E  CON15
 E  CON16
 E  CON17
 E  CON18
 E  CON19
 E  CON20
 E  CON21
 E  CON22
 E  CON23
 E  CON24
COLUMNS
    x[1,1]    OBJ       6.180167      CON1      1.000000    
    x[1,1]    CON7      -1.000000     CON8      -1.000000   
    x[1,1]    CON9      -1.000000   
    x[1,2]    OBJ       6.563535      CON2      1.000000    
    x[1,2]    CON8      -1.000000     CON9      -1.000000   
    x[1,3]    OBJ       7.443064      CON3      1.000000    
    x[1,3]    CON9      -1.000000   
    x[2,1]    OBJ       6.732585      CON4      1.000000    
    x[2,1]    CON10     -1.000000     CON11     -1.000000   
    x[2,1]    CON12     -1.000000   
    x[2,2]    OBJ       5.039546      CON5      1.000000    
    x[2,2]    CON11     -1.000000     CON12     -1.000000   
    x[2,3]    OBJ       6.054841      CON6      1.000000    
    x[2,3]    CON12     -1.000000   
    MARKER    'MARKER'                'INTORG'
    u[1,1]    OBJ       48.076654     CON1      -1.000000   
    u[1,2]    OBJ       20.066487     CON2      -1.000000   
    u[1,3]    OBJ       32.230043     CON3      -1.000000   
    u[2,1]    OBJ       49.996186     CON4      -1.000000   
    u[2,2]    OBJ       49.466655     CON5      -1.000000   
    u[2,3]    OBJ       27.484319     CON6      -1.000000   
    y[1,1,1]  OBJ       7.011714      CON7      0.661368    
    y[1,1,1]  CON13     1.000000    
    y[1,1,2]  OBJ       7.126969      CON8      0.504022    
    y[1,1,2]  CON14     1.000000    
    y[1,1,3]  OBJ       6.111462      CON9      1.150732    
    y[1,1,3]  CON15     1.000000    
    y[1,2,1]  OBJ       9.676478      CON7      0.529995    
    y[1,2,1]  CON16     1.000000    
    y[1,2,2]  OBJ       9.880168      CON8      0.881337    
    y[1,2,2]  CON17     1.000000    
    y[1,2,3]  OBJ       9.931455      CON9      1.431701    
    y[1,2,3]  CON18     1.000000    
    y[1,3,1]  OBJ       8.517359      CON7      0.764062    
    y[1,3,1]  CON19     1.000000    
    y[1,3,2]  OBJ       6.359271      CON8      0.587410    
    y[1,3,2]  CON20     1.000000    
    y[1,3,3]  OBJ       8.171981      CON9      0.764811    
    y[1,3,3]  CON21     1.000000    
    y[1,4,1]  OBJ       7.286248      CON7      1.177554    
    y[1,4,1]  CON22     1.000000    
    y[1,4,2]  OBJ       8.187498      CON8      1.336777    
    y[1,4,2]  CON23     1.000000    
    y[1,4,3]  OBJ       5.247472      CON9      1.241568    
    y[1,4,3]  CON24     1.000000    
    y[2,1,1]  OBJ       5.443532      CON10     0.661368    
    y[2,1,1]  CON13     1.000000    
    y[2,1,2]  OBJ       7.507188      CON11     0.504022    
    y[2,1,2]  CON14     1.000000    
    y[2,1,3]  OBJ       6.480466      CON12     1.150732    
    y[2,1,3]  CON15     1.000000    
    y[2,2,1]  OBJ       5.876342      CON10     0.529995    
    y[2,2,1]  CON16     1.000000    
    y[2,2,2]  OBJ       8.962437      CON11     0.881337    
    y[2,2,2]  CON17     1.000000    
    y[2,2,3]  OBJ       5.552459      CON12     1.431701    
    y[2,2,3]  CON18     1.000000    
    y[2,3,1]  OBJ       7.908507      CON10     0.764062    
    y[2,3,1]  CON19     1.000000    
    y[2,3,2]  OBJ       7.289296      CON11     0.587410    
    y[2,3,2]  CON20     1.000000    
    y[2,3,3]  OBJ       7.257128      CON12     0.764811    
    y[2,3,3]  CON21     1.000000    
    y[2,4,1]  OBJ       7.904929      CON10     1.177554    
    y[2,4,1]  CON22     1.000000    
    y[2,4,2]  OBJ       9.275266      CON11     1.336777    
    y[2,4,2]  CON23     1.000000    
    y[2,4,3]  OBJ       9.657505      CON12     1.241568    
    y[2,4,3]  CON24     1.000000    
    z[1,1]    OBJ       975.091791    CON13     1.000000    
    z[1,2]    OBJ       585.397715    CON14     1.000000    
    z[1,3]    OBJ       811.589925    CON15     1.000000    
    z[2,1]    OBJ       654.981447    CON16     1.000000    
    z[2,2]    OBJ       736.843861    CON17     1.000000    
    z[2,3]    OBJ       802.555021    CON18     1.000000    
    z[3,1]    OBJ       887.919224    CON19     1.000000    
    z[3,2]    OBJ       715.297731    CON20     1.000000    
    z[3,3]    OBJ       642.410907    CON21     1.000000    
    z[4,1]    OBJ       746.058042    CON22     1.000000    
    z[4,2]    OBJ       978.134635    CON23     1.000000    
    z[4,3]    OBJ       933.789559    CON24     1.000000    
    MARKER    'MARKER'                 'INTEND'
RHS
    RHS       CON1      -0.000000     CON2      -0.000000   
    RHS       CON3      -0.000000     CON4      -0.000000   
    RHS       CON5      -0.000000     CON6      -0.000000   
    RHS       CON7      -0.000000     CON8      -0.000000   
    RHS       CON9      -0.000000     CON10     -0.000000   
    RHS       CON11     -0.000000     CON12     -0.000000   
    RHS       CON13     1.000000      CON14     1.000000    
    RHS       CON15     1.000000      CON16     1.000000    
    RHS       CON17     1.000000      CON18     1.000000    
    RHS       CON19     1.000000      CON20     1.000000    
    RHS       CON21     1.000000      CON22     1.000000    
    RHS       CON23     1.000000      CON24     1.000000    
BOUNDS
 BV BOUND     u[1,1]  
 BV BOUND     u[1,2]  
 BV BOUND     u[1,3]  
 BV BOUND     u[2,1]  
 BV BOUND     u[2,2]  
 BV BOUND     u[2,3]  
 BV BOUND     y[1,1,1]
 BV BOUND     y[1,1,2]
 BV BOUND     y[1,1,3]
 BV BOUND     y[1,2,1]
 BV BOUND     y[1,2,2]
 BV BOUND     y[1,2,3]
 BV BOUND     y[1,3,1]
 BV BOUND     y[1,3,2]
 BV BOUND     y[1,3,3]
 BV BOUND     y[1,4,1]
 BV BOUND     y[1,4,2]
 BV BOUND     y[1,4,3]
 BV BOUND     y[2,1,1]
 BV BOUND     y[2,1,2]
 BV BOUND     y[2,1,3]
 BV BOUND     y[2,2,1]
 BV BOUND     y[2,2,2]
 BV BOUND     y[2,2,3]
 BV BOUND     y[2,3,1]
 BV BOUND     y[2,3,2]
 BV BOUND     y[2,3,3]
 BV BOUND     y[2,4,1]
 BV BOUND     y[2,4,2]
 BV BOUND     y[2,4,3]
 BV BOUND     z[1,1]  
 BV BOUND     z[1,2]  
 BV BOUND     z[1,3]  
 BV BOUND     z[2,1]  
 BV BOUND     z[2,2]  
 BV BOUND     z[2,3]  
 BV BOUND     z[3,1]  
 BV BOUND     z[3,2]  
 BV BOUND     z[3,3]  
 BV BOUND     z[4,1]  
 BV BOUND     z[4,2]  
 BV BOUND     z[4,3]  
ENDATA
